(set-logic HORN)
(set-info :source |
    Benchmark: C_VC
    Output by Princess (http://www.philipp.ruemmer.org/princess.shtml)
|)
(set-info :status sat)
(declare-heap Heap Addr HeapObject
 defObj
 ((HeapObject 0) (node 0)) (
  (
   (O_Int (getInt Int))
   (O_UInt (getUInt Int))
   (O_Addr (getAddr Addr))
   (O_node (getnode node))
   (defObj)
  )
  (
   (node (h Int) (flag Int) (n Addr))
  )
))
(declare-fun inv_main13 (Heap Addr Addr Addr Int) Bool)
(declare-fun inv_main14 (Heap Addr Addr Addr Int) Bool)
(declare-fun inv_main19 (Heap Addr Addr Addr Int) Bool)
(declare-fun inv_main20 (Heap Addr Addr Addr Int) Bool)
(declare-fun inv_main22 (Heap Addr Addr Addr Int) Bool)
(declare-fun inv_main23 (Heap Addr Addr Addr Int) Bool)
(declare-fun inv_main26 (Heap Addr Addr Addr Int) Bool)
(declare-fun inv_main29 (Heap Addr Addr Addr Int Int) Bool)
(declare-fun inv_main3 (Heap Addr Addr Addr) Bool)
(declare-fun inv_main32 (Heap Addr Addr Addr Int) Bool)
(declare-fun inv_main34 (Heap Addr Addr Addr Int) Bool)
(declare-fun inv_main37 (Heap Addr Addr Addr Int) Bool)
(declare-fun inv_main38 (Heap Addr Addr Addr Int) Bool)
(declare-fun inv_main39 (Heap Addr Addr Addr Int) Bool)
(declare-fun inv_main41 (Heap Addr Addr Addr Int) Bool)
(declare-fun inv_main42 (Heap Addr Addr Addr Int) Bool)
(declare-fun inv_main43 (Heap Addr Addr Addr Int) Bool)
(declare-fun inv_main56 (Heap Addr Addr Addr Int) Bool)
(declare-fun inv_main58 (Heap Addr Addr Addr Int) Bool)
(declare-fun inv_main64 (Heap Addr Addr Addr Int) Bool)
(declare-fun inv_main9 (Heap Addr Addr Addr Int) Bool)
(assert (forall ((var0 Addr) (var1 Addr) (var2 Addr) (var3 Heap)) (or (not (= var3 emptyHeap)) (inv_main3 var3 var2 var1 var0))))
(assert (forall ((var0 Int) (var1 Addr) (var2 Addr) (var3 Addr) (var4 Heap) (var5 Int) (var6 Int) (var7 Addr) (var8 Addr) (var9 Addr) (var10 Heap)) (or (not (and (inv_main37 var10 var9 var8 var7 var6) (and (and (not (= var5 3)) (is-O_node (read var10 var9))) (and (and (and (and (and (= var4 var10) (= var3 var9)) (= var2 var8)) (= var1 var7)) (= var0 var6)) (= var5 (h (getnode (read var10 var9)))))))) (inv_main39 var4 var3 var2 var1 var0))))
(assert (forall ((var0 Int) (var1 Int) (var2 Addr) (var3 Addr) (var4 Addr) (var5 Heap)) (or (not (inv_main29 var5 var4 var3 var2 var1 var0)) (inv_main29 var5 var4 var3 var2 var1 var0))))
(assert (forall ((var0 Int) (var1 Int) (var2 Addr) (var3 Addr) (var4 Addr) (var5 Addr) (var6 Addr) (var7 Addr) (var8 node) (var9 Heap) (var10 Heap) (var11 Addr) (var12 Int) (var13 Addr) (var14 Addr) (var15 Addr) (var16 Heap)) (or (not (and (inv_main22 var16 var15 var14 var13 var12) (and (and (and (= var11 nullAddr) (and (and (and (and (and (= var10 (newHeap (alloc var9 (O_node var8)))) (= var7 var6)) (= var5 var4)) (= var3 var2)) (= var1 var0)) (= var11 (newAddr (alloc var9 (O_node var8)))))) (is-O_node (read var16 var15))) (and (and (and (and (= var9 (write var16 var15 (O_node (node 1 (flag (getnode (read var16 var15))) (n (getnode (read var16 var15))))))) (= var6 var15)) (= var4 var14)) (= var2 var13)) (= var0 var12))))) (inv_main29 var10 var7 var5 var11 var1 1))))
(assert (forall ((var0 Int) (var1 Int) (var2 Addr) (var3 Addr) (var4 Addr) (var5 Addr) (var6 Addr) (var7 Addr) (var8 node) (var9 Heap) (var10 Heap) (var11 Addr) (var12 Int) (var13 Addr) (var14 Addr) (var15 Addr) (var16 Heap)) (or (not (and (inv_main23 var16 var15 var14 var13 var12) (and (and (and (= var11 nullAddr) (and (and (and (and (and (= var10 (newHeap (alloc var9 (O_node var8)))) (= var7 var6)) (= var5 var4)) (= var3 var2)) (= var1 var0)) (= var11 (newAddr (alloc var9 (O_node var8)))))) (is-O_node (read var16 var15))) (and (and (and (and (= var9 (write var16 var15 (O_node (node 2 (flag (getnode (read var16 var15))) (n (getnode (read var16 var15))))))) (= var6 var15)) (= var4 var14)) (= var2 var13)) (= var0 var12))))) (inv_main29 var10 var7 var5 var11 var1 1))))
(assert (forall ((var0 Int) (var1 Addr) (var2 Addr) (var3 Addr) (var4 Heap)) (or (not (and (inv_main39 var4 var3 var2 var1 var0) (and (is-O_node (read var4 var3)) (= (flag (getnode (read var4 var3))) 0)))) (inv_main43 var4 var3 var2 var1 var0))))
(assert (forall ((var0 Int) (var1 Addr) (var2 Addr) (var3 Addr) (var4 Heap)) (or (not (and (inv_main19 var4 var3 var2 var1 var0) (and (is-O_node (read var4 var3)) (not (= (flag (getnode (read var4 var3))) 0))))) (inv_main22 var4 var3 var2 var1 var0))))
(assert (forall ((var0 Addr) (var1 Addr) (var2 Addr) (var3 Heap) (var4 Int) (var5 Int) (var6 Int) (var7 Addr) (var8 Addr) (var9 Addr) (var10 Heap)) (or (not (and (inv_main38 var10 var9 var8 var7 var6) (and (and (and (= var5 3) (not (<= 0 (+ (+ var4 (- 20)) (- 1))))) (is-O_node (read var10 var9))) (and (and (and (and (and (= var3 var10) (= var2 var9)) (= var1 var8)) (= var0 var7)) (= var4 var6)) (= var5 (h (getnode (read var10 var9)))))))) (inv_main56 var3 var1 var1 var0 var4))))
(assert (forall ((var0 Int) (var1 Addr) (var2 Addr) (var3 Addr) (var4 Heap) (var5 Addr) (var6 Int) (var7 Addr) (var8 Addr) (var9 Addr) (var10 Heap) (var11 Int) (var12 Addr) (var13 Addr) (var14 Addr) (var15 Heap)) (or (not (and (inv_main58 var15 var14 var13 var12 var11) (and (and (is-O_node (read var15 var14)) (and (and (and (and (and (= var10 var15) (= var9 var14)) (= var8 var13)) (= var7 var12)) (= var6 var11)) (= var5 (n (getnode (read var15 var14)))))) (and (and (and (and (= var4 (write var10 var9 defObj)) (= var3 var9)) (= var2 var8)) (= var1 var5)) (= var0 var6))))) (inv_main56 var4 var1 var2 var1 var0))))
(assert (forall ((var0 Int) (var1 Addr) (var2 Addr) (var3 Addr) (var4 Heap) (var5 Int) (var6 Addr) (var7 Addr) (var8 Addr) (var9 Heap)) (or (not (and (inv_main34 var9 var8 var7 var6 var5) (and (is-O_node (read var9 var8)) (and (and (and (and (= var4 (write var9 var8 (O_node (node (h (getnode (read var9 var8))) (flag (getnode (read var9 var8))) 0)))) (= var3 var8)) (= var2 var7)) (= var1 var6)) (= var0 var5))))) (inv_main37 var4 var2 var2 var1 0))))
(assert (forall ((var0 Addr) (var1 Int) (var2 Addr) (var3 Addr) (var4 Addr) (var5 Heap) (var6 Int) (var7 Addr) (var8 Addr) (var9 Addr) (var10 Heap)) (or (not (and (inv_main41 var10 var9 var8 var7 var6) (and (is-O_node (read var10 var9)) (and (and (and (and (and (= var5 var10) (= var4 var9)) (= var3 var8)) (= var2 var7)) (= var1 var6)) (= var0 (n (getnode (read var10 var9)))))))) (inv_main37 var5 var0 var3 var2 (+ var1 1)))))
(assert (forall ((var0 Int) (var1 Addr) (var2 Addr) (var3 Addr) (var4 Heap)) (or (not (and (inv_main39 var4 var3 var2 var1 var0) (and (is-O_node (read var4 var3)) (not (= (flag (getnode (read var4 var3))) 0))))) (inv_main42 var4 var3 var2 var1 var0))))
(assert (forall ((var0 Int) (var1 Addr) (var2 Addr) (var3 Addr) (var4 Heap)) (or (not (and (inv_main14 var4 var3 var2 var1 var0) (is-O_node (read var4 var3)))) (inv_main34 (write var4 var3 (O_node (node 3 (flag (getnode (read var4 var3))) (n (getnode (read var4 var3)))))) var3 var2 var1 var0))))
(assert (forall ((var0 Int) (var1 Addr) (var2 Addr) (var3 Addr) (var4 Heap)) (or (not (and (inv_main19 var4 var3 var2 var1 var0) (and (is-O_node (read var4 var3)) (= (flag (getnode (read var4 var3))) 0)))) (inv_main23 var4 var3 var2 var1 var0))))
(assert (forall ((var0 Int) (var1 Int) (var2 Addr) (var3 Addr) (var4 Addr) (var5 Heap)) (or (not (and (inv_main13 var5 var4 var3 var2 var1) (and (not (= var0 0)) (<= 0 (+ (+ 20 (* (- 1) var1)) (- 1)))))) (inv_main20 var5 var4 var3 var2 (+ var1 1)))))
(assert (forall ((var0 Int) (var1 Addr) (var2 Addr) (var3 Addr) (var4 Heap)) (or (not (inv_main9 var4 var3 var2 var1 var0)) (inv_main9 var4 var3 var2 var1 var0))))
(assert (forall ((var0 Addr) (var1 Addr) (var2 Addr) (var3 node) (var4 Heap) (var5 Addr) (var6 Addr) (var7 Addr) (var8 Addr) (var9 Heap)) (or (not (and (inv_main3 var9 var8 var7 var6) (and (= var5 nullAddr) (and (and (and (and (= var4 (newHeap (alloc var9 (O_node var3)))) (= var2 var8)) (= var1 var7)) (= var0 var6)) (= var5 (newAddr (alloc var9 (O_node var3)))))))) (inv_main9 var4 var2 var5 var0 1))))
(assert (forall ((var0 Int) (var1 Addr) (var2 Addr) (var3 Addr) (var4 Heap) (var5 Int) (var6 Int) (var7 Addr) (var8 Addr) (var9 Addr) (var10 Heap)) (or (not (and (inv_main37 var10 var9 var8 var7 var6) (and (and (= var5 3) (is-O_node (read var10 var9))) (and (and (and (and (and (= var4 var10) (= var3 var9)) (= var2 var8)) (= var1 var7)) (= var0 var6)) (= var5 (h (getnode (read var10 var9)))))))) (inv_main38 var4 var3 var2 var1 var0))))
(assert (forall ((var0 Addr) (var1 Int) (var2 Addr) (var3 Addr) (var4 Addr) (var5 Heap) (var6 Int) (var7 Addr) (var8 Addr) (var9 Addr) (var10 Heap)) (or (not (and (inv_main32 var10 var9 var8 var7 var6) (and (is-O_node (read var10 var9)) (and (and (and (and (and (= var5 var10) (= var4 var9)) (= var3 var8)) (= var2 var7)) (= var1 var6)) (= var0 (n (getnode (read var10 var9)))))))) (inv_main13 var5 var0 var3 var2 var1))))
(assert (forall ((var0 Addr) (var1 Addr) (var2 Addr) (var3 node) (var4 Heap) (var5 Addr) (var6 Addr) (var7 Addr) (var8 Addr) (var9 Heap)) (or (not (and (inv_main3 var9 var8 var7 var6) (and (not (= var5 nullAddr)) (and (and (and (and (= var4 (newHeap (alloc var9 (O_node var3)))) (= var2 var8)) (= var1 var7)) (= var0 var6)) (= var5 (newAddr (alloc var9 (O_node var3)))))))) (inv_main13 var4 var5 var5 var0 0))))
(assert (forall ((var0 Int) (var1 Addr) (var2 Addr) (var3 Addr) (var4 Heap) (var5 Addr) (var6 Int) (var7 Addr) (var8 Addr) (var9 Addr) (var10 Heap)) (or (not (and (inv_main56 var10 var9 var8 var7 var6) (and (and (not (= var5 nullAddr)) (is-O_node (read var10 var9))) (and (and (and (and (and (= var4 var10) (= var3 var9)) (= var2 var8)) (= var1 var7)) (= var0 var6)) (= var5 (n (getnode (read var10 var9)))))))) (inv_main58 var4 var3 var2 var1 var0))))
(assert (forall ((var0 Int) (var1 Int) (var2 Addr) (var3 Addr) (var4 Addr) (var5 Heap)) (or (not (and (inv_main20 var5 var4 var3 var2 var1) (is-O_node (read var5 var4)))) (inv_main19 (write var5 var4 (O_node (node (h (getnode (read var5 var4))) var0 (n (getnode (read var5 var4)))))) var4 var3 var2 var1))))
(assert (forall ((var0 Int) (var1 Addr) (var2 Addr) (var3 Addr) (var4 Heap) (var5 Int) (var6 Int) (var7 Addr) (var8 Addr) (var9 Addr) (var10 Heap)) (or (not (and (inv_main42 var10 var9 var8 var7 var6) (and (and (= var5 1) (is-O_node (read var10 var9))) (and (and (and (and (and (= var4 var10) (= var3 var9)) (= var2 var8)) (= var1 var7)) (= var0 var6)) (= var5 (h (getnode (read var10 var9)))))))) (inv_main41 var4 var3 var2 var1 var0))))
(assert (forall ((var0 Int) (var1 Addr) (var2 Addr) (var3 Addr) (var4 Heap) (var5 Int) (var6 Int) (var7 Addr) (var8 Addr) (var9 Addr) (var10 Heap)) (or (not (and (inv_main43 var10 var9 var8 var7 var6) (and (and (= var5 2) (is-O_node (read var10 var9))) (and (and (and (and (and (= var4 var10) (= var3 var9)) (= var2 var8)) (= var1 var7)) (= var0 var6)) (= var5 (h (getnode (read var10 var9)))))))) (inv_main41 var4 var3 var2 var1 var0))))
(assert (forall ((var0 Int) (var1 Addr) (var2 Addr) (var3 Addr) (var4 Heap) (var5 Int) (var6 Int) (var7 Addr) (var8 Addr) (var9 Addr) (var10 Heap)) (or (not (and (inv_main42 var10 var9 var8 var7 var6) (and (and (not (= var5 1)) (is-O_node (read var10 var9))) (and (and (and (and (and (= var4 var10) (= var3 var9)) (= var2 var8)) (= var1 var7)) (= var0 var6)) (= var5 (h (getnode (read var10 var9)))))))) (inv_main64 var4 var3 var2 var1 var0))))
(assert (forall ((var0 Int) (var1 Addr) (var2 Addr) (var3 Addr) (var4 Heap) (var5 Int) (var6 Int) (var7 Addr) (var8 Addr) (var9 Addr) (var10 Heap)) (or (not (and (inv_main43 var10 var9 var8 var7 var6) (and (and (not (= var5 2)) (is-O_node (read var10 var9))) (and (and (and (and (and (= var4 var10) (= var3 var9)) (= var2 var8)) (= var1 var7)) (= var0 var6)) (= var5 (h (getnode (read var10 var9)))))))) (inv_main64 var4 var3 var2 var1 var0))))
(assert (forall ((var0 Addr) (var1 Addr) (var2 Addr) (var3 Heap) (var4 Int) (var5 Int) (var6 Int) (var7 Addr) (var8 Addr) (var9 Addr) (var10 Heap)) (or (not (and (inv_main38 var10 var9 var8 var7 var6) (and (and (or (not (= var5 3)) (<= 0 (+ (+ var4 (- 20)) (- 1)))) (is-O_node (read var10 var9))) (and (and (and (and (and (= var3 var10) (= var2 var9)) (= var1 var8)) (= var0 var7)) (= var4 var6)) (= var5 (h (getnode (read var10 var9)))))))) (inv_main64 var3 var2 var1 var0 var4))))
(assert (forall ((var0 Int) (var1 Addr) (var2 Addr) (var3 Addr) (var4 Heap)) (or (not (and (inv_main13 var4 var3 var2 var1 var0) (not (<= 0 (+ (+ 20 (* (- 1) var0)) (- 1)))))) (inv_main14 var4 var3 var2 var1 var0))))
(assert (forall ((var0 Int) (var1 Int) (var2 Addr) (var3 Addr) (var4 Addr) (var5 Heap)) (or (not (and (inv_main13 var5 var4 var3 var2 var1) (and (= var0 0) (<= 0 (+ (+ 20 (* (- 1) var1)) (- 1)))))) (inv_main14 var5 var4 var3 var2 var1))))
(assert (forall ((var0 Int) (var1 Addr) (var2 Addr) (var3 Addr) (var4 Heap)) (or (not (and (inv_main26 var4 var3 var2 var1 var0) (is-O_node (read var4 var3)))) (inv_main32 (write var4 var3 (O_node (node (h (getnode (read var4 var3))) (flag (getnode (read var4 var3))) var1))) var3 var2 var1 var0))))
(assert (forall ((var0 Int) (var1 Int) (var2 Addr) (var3 Addr) (var4 Addr) (var5 Addr) (var6 Addr) (var7 Addr) (var8 node) (var9 Heap) (var10 Heap) (var11 Addr) (var12 Int) (var13 Addr) (var14 Addr) (var15 Addr) (var16 Heap)) (or (not (and (inv_main22 var16 var15 var14 var13 var12) (and (and (and (not (= var11 nullAddr)) (and (and (and (and (and (= var10 (newHeap (alloc var9 (O_node var8)))) (= var7 var6)) (= var5 var4)) (= var3 var2)) (= var1 var0)) (= var11 (newAddr (alloc var9 (O_node var8)))))) (is-O_node (read var16 var15))) (and (and (and (and (= var9 (write var16 var15 (O_node (node 1 (flag (getnode (read var16 var15))) (n (getnode (read var16 var15))))))) (= var6 var15)) (= var4 var14)) (= var2 var13)) (= var0 var12))))) (inv_main26 var10 var7 var5 var11 var1))))
(assert (forall ((var0 Int) (var1 Int) (var2 Addr) (var3 Addr) (var4 Addr) (var5 Addr) (var6 Addr) (var7 Addr) (var8 node) (var9 Heap) (var10 Heap) (var11 Addr) (var12 Int) (var13 Addr) (var14 Addr) (var15 Addr) (var16 Heap)) (or (not (and (inv_main23 var16 var15 var14 var13 var12) (and (and (and (not (= var11 nullAddr)) (and (and (and (and (and (= var10 (newHeap (alloc var9 (O_node var8)))) (= var7 var6)) (= var5 var4)) (= var3 var2)) (= var1 var0)) (= var11 (newAddr (alloc var9 (O_node var8)))))) (is-O_node (read var16 var15))) (and (and (and (and (= var9 (write var16 var15 (O_node (node 2 (flag (getnode (read var16 var15))) (n (getnode (read var16 var15))))))) (= var6 var15)) (= var4 var14)) (= var2 var13)) (= var0 var12))))) (inv_main26 var10 var7 var5 var11 var1))))
(assert (forall ((var0 Int) (var1 Addr) (var2 Addr) (var3 Addr) (var4 Heap)) (not (and (inv_main20 var4 var3 var2 var1 var0) (not (is-O_node (read var4 var3)))))))
(assert (forall ((var0 Int) (var1 Addr) (var2 Addr) (var3 Addr) (var4 Heap)) (not (and (inv_main19 var4 var3 var2 var1 var0) (not (is-O_node (read var4 var3)))))))
(assert (forall ((var0 Int) (var1 Addr) (var2 Addr) (var3 Addr) (var4 Heap)) (not (and (inv_main22 var4 var3 var2 var1 var0) (not (is-O_node (read var4 var3)))))))
(assert (forall ((var0 Int) (var1 Addr) (var2 Addr) (var3 Addr) (var4 Heap)) (not (and (inv_main23 var4 var3 var2 var1 var0) (not (is-O_node (read var4 var3)))))))
(assert (forall ((var0 Int) (var1 Addr) (var2 Addr) (var3 Addr) (var4 Heap)) (not (and (inv_main26 var4 var3 var2 var1 var0) (not (is-O_node (read var4 var3)))))))
(assert (forall ((var0 Int) (var1 Addr) (var2 Addr) (var3 Addr) (var4 Heap)) (not (and (inv_main32 var4 var3 var2 var1 var0) (not (is-O_node (read var4 var3)))))))
(assert (forall ((var0 Int) (var1 Addr) (var2 Addr) (var3 Addr) (var4 Heap)) (not (and (inv_main14 var4 var3 var2 var1 var0) (not (is-O_node (read var4 var3)))))))
(assert (forall ((var0 Int) (var1 Addr) (var2 Addr) (var3 Addr) (var4 Heap)) (not (and (inv_main34 var4 var3 var2 var1 var0) (not (is-O_node (read var4 var3)))))))
(assert (forall ((var0 Int) (var1 Addr) (var2 Addr) (var3 Addr) (var4 Heap)) (not (and (inv_main37 var4 var3 var2 var1 var0) (not (is-O_node (read var4 var3)))))))
(assert (forall ((var0 Int) (var1 Addr) (var2 Addr) (var3 Addr) (var4 Heap)) (not (and (inv_main39 var4 var3 var2 var1 var0) (not (is-O_node (read var4 var3)))))))
(assert (forall ((var0 Int) (var1 Addr) (var2 Addr) (var3 Addr) (var4 Heap)) (not (and (inv_main42 var4 var3 var2 var1 var0) (not (is-O_node (read var4 var3)))))))
(assert (forall ((var0 Int) (var1 Addr) (var2 Addr) (var3 Addr) (var4 Heap)) (not (and (inv_main43 var4 var3 var2 var1 var0) (not (is-O_node (read var4 var3)))))))
(assert (forall ((var0 Int) (var1 Addr) (var2 Addr) (var3 Addr) (var4 Heap)) (not (and (inv_main41 var4 var3 var2 var1 var0) (not (is-O_node (read var4 var3)))))))
(assert (forall ((var0 Int) (var1 Addr) (var2 Addr) (var3 Addr) (var4 Heap)) (not (and (inv_main38 var4 var3 var2 var1 var0) (not (is-O_node (read var4 var3)))))))
(assert (forall ((var0 Int) (var1 Addr) (var2 Addr) (var3 Addr) (var4 Heap)) (not (and (inv_main56 var4 var3 var2 var1 var0) (not (is-O_node (read var4 var3)))))))
(assert (forall ((var0 Int) (var1 Addr) (var2 Addr) (var3 Addr) (var4 Heap)) (not (and (inv_main58 var4 var3 var2 var1 var0) (not (is-O_node (read var4 var3)))))))
(assert (forall ((var0 Int) (var1 Addr) (var2 Addr) (var3 Addr) (var4 Heap)) (not (inv_main64 var4 var3 var2 var1 var0))))
(check-sat)
